<?xml version = "1.0" encoding="UTF-8" standalone="yes"?>
<CPLEXSolution version="1.2">
 <header
   problemName="1_gamma__E_5_2_2"
   solutionName="incumbent"
   solutionIndex="-1"
   objectiveValue="10"
   solutionTypeValue="3"
   solutionTypeString="primal"
   solutionStatusValue="101"
   solutionStatusString="integer optimal solution"
   solutionMethodString="mip"
   primalFeasible="1"
   dualFeasible="1"
   MIPNodes="0"
   MIPIterations="135"
   writeLevel="1"/>
 <quality
   epInt="1.0000000000000001e-05"
   epRHS="9.9999999999999995e-07"
   maxIntInfeas="3.1086244689504383e-15"
   maxPrimalInfeas="7.1054273576010019e-15"
   maxX="10"
   maxSlack="7.1054273576010019e-15"/>
 <linearConstraints>
  <constraint name="R_def" index="0" slack="0"/>
  <constraint name="val_cible" index="1" slack="0"/>
  <constraint name="BkI_3_0" index="2" slack="-1.3322676295501878e-15"/>
  <constraint name="BkI_3_1" index="3" slack="3.9968028886505635e-15"/>
  <constraint name="BkI_3_2" index="4" slack="-2.2204460492503131e-16"/>
  <constraint name="BkI_3_3" index="5" slack="0"/>
  <constraint name="BkI_3_4" index="6" slack="3.1086244689504383e-15"/>
  <constraint name="BkI_5_0" index="7" slack="3.1086244689504383e-15"/>
  <constraint name="BkI_5_1" index="8" slack="-8.8817841970012523e-16"/>
  <constraint name="BkI_5_2" index="9" slack="-3.1086244689504383e-15"/>
  <constraint name="BkI_5_3" index="10" slack="4.8849813083506888e-15"/>
  <constraint name="BkI_5_4" index="11" slack="1.5543122344752192e-15"/>
  <constraint name="BkI_6_0" index="12" slack="-2.6645352591003757e-15"/>
  <constraint name="BkI_6_1" index="13" slack="-8.8817841970012523e-16"/>
  <constraint name="BkI_6_2" index="14" slack="2.2204460492503131e-16"/>
  <constraint name="BkI_6_3" index="15" slack="1.7763568394002505e-15"/>
  <constraint name="BkI_6_4" index="16" slack="7.1054273576010019e-15"/>
  <constraint name="BkI_9_0" index="17" slack="-1.7763568394002505e-15"/>
  <constraint name="BkI_9_1" index="18" slack="4.6629367034256575e-15"/>
  <constraint name="BkI_9_2" index="19" slack="8.8817841970012523e-16"/>
  <constraint name="BkI_9_3" index="20" slack="1.7763568394002505e-15"/>
  <constraint name="BkI_9_4" index="21" slack="0"/>
  <constraint name="BkI_10_0" index="22" slack="2.2204460492503131e-15"/>
  <constraint name="BkI_10_1" index="23" slack="0"/>
  <constraint name="BkI_10_2" index="24" slack="-2.2204460492503131e-15"/>
  <constraint name="BkI_10_3" index="25" slack="3.1086244689504383e-15"/>
  <constraint name="BkI_10_4" index="26" slack="2.4424906541753444e-15"/>
  <constraint name="BkI_12_0" index="27" slack="1.3322676295501878e-15"/>
  <constraint name="BkI_12_1" index="28" slack="3.1086244689504383e-15"/>
  <constraint name="BkI_12_2" index="29" slack="6.6613381477509392e-16"/>
  <constraint name="BkI_12_3" index="30" slack="-1.7763568394002505e-15"/>
  <constraint name="BkI_12_4" index="31" slack="2.2204460492503131e-15"/>
  <constraint name="BkI_17_0" index="32" slack="0"/>
  <constraint name="BkI_17_1" index="33" slack="3.1086244689504383e-15"/>
  <constraint name="BkI_17_2" index="34" slack="-8.8817841970012523e-16"/>
  <constraint name="BkI_17_3" index="35" slack="3.3306690738754696e-15"/>
  <constraint name="BkI_17_4" index="36" slack="0"/>
  <constraint name="BkI_18_0" index="37" slack="-4.4408920985006262e-16"/>
  <constraint name="BkI_18_1" index="38" slack="6.6613381477509392e-16"/>
  <constraint name="BkI_18_2" index="39" slack="2.2204460492503131e-15"/>
  <constraint name="BkI_18_3" index="40" slack="0"/>
  <constraint name="BkI_18_4" index="41" slack="3.1086244689504383e-15"/>
  <constraint name="BkI_20_0" index="42" slack="3.9968028886505635e-15"/>
  <constraint name="BkI_20_1" index="43" slack="8.8817841970012523e-16"/>
  <constraint name="BkI_20_2" index="44" slack="-8.8817841970012523e-16"/>
  <constraint name="BkI_20_3" index="45" slack="0"/>
  <constraint name="BkI_20_4" index="46" slack="1.5543122344752192e-15"/>
  <constraint name="BkI_24_0" index="47" slack="-8.8817841970012523e-16"/>
  <constraint name="BkI_24_1" index="48" slack="0"/>
  <constraint name="BkI_24_2" index="49" slack="1.5543122344752192e-15"/>
  <constraint name="BkI_24_3" index="50" slack="-1.3322676295501878e-15"/>
  <constraint name="BkI_24_4" index="51" slack="6.2172489379008766e-15"/>
 </linearConstraints>
 <variables>
  <variable name="R" index="0" value="10"/>
  <variable name="Q01234" index="1" value="2"/>
  <variable name="Q00000" index="2" value="4"/>
  <variable name="P00000" index="3" value="-0"/>
  <variable name="Q00001" index="4" value="-0"/>
  <variable name="P00001" index="5" value="-0"/>
  <variable name="Q00002" index="6" value="-0"/>
  <variable name="P00002" index="7" value="-0"/>
  <variable name="Q00003" index="8" value="-0"/>
  <variable name="P00003" index="9" value="-0"/>
  <variable name="Q00004" index="10" value="-0"/>
  <variable name="P00004" index="11" value="-0"/>
  <variable name="Q00010" index="12" value="-0"/>
  <variable name="P00010" index="13" value="-0"/>
  <variable name="Q00011" index="14" value="-0"/>
  <variable name="P00011" index="15" value="0"/>
  <variable name="Q00012" index="16" value="-0"/>
  <variable name="Q00013" index="17" value="-0"/>
  <variable name="Q00014" index="18" value="-0"/>
  <variable name="Q00020" index="19" value="-0"/>
  <variable name="P00020" index="20" value="-0"/>
  <variable name="Q00021" index="21" value="-0"/>
  <variable name="Q00022" index="22" value="-0"/>
  <variable name="P00022" index="23" value="0"/>
  <variable name="Q00023" index="24" value="-0"/>
  <variable name="Q00024" index="25" value="-0"/>
  <variable name="Q00030" index="26" value="-0"/>
  <variable name="P00030" index="27" value="-0"/>
  <variable name="Q00031" index="28" value="-0"/>
  <variable name="Q00032" index="29" value="-0"/>
  <variable name="Q00033" index="30" value="-0"/>
  <variable name="P00033" index="31" value="0.99999999999999822"/>
  <variable name="Q00034" index="32" value="-0"/>
  <variable name="Q00040" index="33" value="-0"/>
  <variable name="P00040" index="34" value="-0"/>
  <variable name="Q00041" index="35" value="0"/>
  <variable name="Q00042" index="36" value="-0"/>
  <variable name="Q00043" index="37" value="-0"/>
  <variable name="Q00044" index="38" value="-0"/>
  <variable name="P00044" index="39" value="-0"/>
  <variable name="Q00100" index="40" value="-0"/>
  <variable name="P00100" index="41" value="-0"/>
  <variable name="Q00101" index="42" value="-0"/>
  <variable name="P00101" index="43" value="0"/>
  <variable name="Q00102" index="44" value="-0"/>
  <variable name="Q00103" index="45" value="-0"/>
  <variable name="Q00104" index="46" value="-0"/>
  <variable name="Q00110" index="47" value="-0"/>
  <variable name="P00110" index="48" value="0"/>
  <variable name="Q00111" index="49" value="-0"/>
  <variable name="P00111" index="50" value="-0"/>
  <variable name="Q00112" index="51" value="-0"/>
  <variable name="Q00113" index="52" value="-0"/>
  <variable name="Q00114" index="53" value="-0"/>
  <variable name="Q00120" index="54" value="-0"/>
  <variable name="Q00121" index="55" value="-0"/>
  <variable name="Q00122" index="56" value="-0"/>
  <variable name="Q00123" index="57" value="-0"/>
  <variable name="Q00124" index="58" value="-0"/>
  <variable name="Q00130" index="59" value="-0"/>
  <variable name="Q00131" index="60" value="-0"/>
  <variable name="Q00132" index="61" value="-0"/>
  <variable name="Q00133" index="62" value="-0"/>
  <variable name="Q00134" index="63" value="-0"/>
  <variable name="Q00140" index="64" value="-0"/>
  <variable name="Q00141" index="65" value="-0"/>
  <variable name="Q00142" index="66" value="-0"/>
  <variable name="Q00143" index="67" value="-0"/>
  <variable name="Q00144" index="68" value="-0"/>
  <variable name="Q00200" index="69" value="-0"/>
  <variable name="P00200" index="70" value="-0"/>
  <variable name="Q00201" index="71" value="-0"/>
  <variable name="Q00202" index="72" value="-0"/>
  <variable name="P00202" index="73" value="-0"/>
  <variable name="Q00203" index="74" value="-0"/>
  <variable name="Q00204" index="75" value="-0"/>
  <variable name="Q00210" index="76" value="-0"/>
  <variable name="Q00211" index="77" value="-0"/>
  <variable name="Q00212" index="78" value="-0"/>
  <variable name="Q00213" index="79" value="-0"/>
  <variable name="Q00214" index="80" value="-0"/>
  <variable name="Q00220" index="81" value="-0"/>
  <variable name="P00220" index="82" value="0"/>
  <variable name="Q00221" index="83" value="-0"/>
  <variable name="Q00222" index="84" value="-0"/>
  <variable name="P00222" index="85" value="1.0000000000000009"/>
  <variable name="Q00223" index="86" value="-0"/>
  <variable name="Q00224" index="87" value="-0"/>
  <variable name="Q00230" index="88" value="-0"/>
  <variable name="Q00231" index="89" value="-0"/>
  <variable name="Q00232" index="90" value="-0"/>
  <variable name="Q00233" index="91" value="-0"/>
  <variable name="Q00234" index="92" value="-0"/>
  <variable name="Q00240" index="93" value="-0"/>
  <variable name="Q00241" index="94" value="-0"/>
  <variable name="Q00242" index="95" value="-0"/>
  <variable name="Q00243" index="96" value="-0"/>
  <variable name="Q00244" index="97" value="-0"/>
  <variable name="Q00300" index="98" value="-0"/>
  <variable name="P00300" index="99" value="-0"/>
  <variable name="Q00301" index="100" value="-0"/>
  <variable name="Q00302" index="101" value="0"/>
  <variable name="Q00303" index="102" value="-0"/>
  <variable name="P00303" index="103" value="-0"/>
  <variable name="Q00304" index="104" value="-0"/>
  <variable name="Q00310" index="105" value="-0"/>
  <variable name="Q00311" index="106" value="0"/>
  <variable name="Q00312" index="107" value="-0"/>
  <variable name="Q00313" index="108" value="-0"/>
  <variable name="Q00314" index="109" value="-0"/>
  <variable name="Q00320" index="110" value="-0"/>
  <variable name="Q00321" index="111" value="-0"/>
  <variable name="Q00322" index="112" value="-0"/>
  <variable name="Q00323" index="113" value="-0"/>
  <variable name="Q00324" index="114" value="-0"/>
  <variable name="Q00330" index="115" value="-0"/>
  <variable name="P00330" index="116" value="1.0000000000000018"/>
  <variable name="Q00331" index="117" value="-0"/>
  <variable name="Q00332" index="118" value="-0"/>
  <variable name="Q00333" index="119" value="-0"/>
  <variable name="P00333" index="120" value="-0"/>
  <variable name="Q00334" index="121" value="-0"/>
  <variable name="Q00340" index="122" value="-0"/>
  <variable name="Q00341" index="123" value="-0"/>
  <variable name="Q00342" index="124" value="-0"/>
  <variable name="Q00343" index="125" value="-0"/>
  <variable name="Q00344" index="126" value="-0"/>
  <variable name="Q00400" index="127" value="-0"/>
  <variable name="P00400" index="128" value="-0"/>
  <variable name="Q00401" index="129" value="-0"/>
  <variable name="Q00402" index="130" value="-0"/>
  <variable name="Q00403" index="131" value="-0"/>
  <variable name="Q00404" index="132" value="-0"/>
  <variable name="P00404" index="133" value="1"/>
  <variable name="Q00410" index="134" value="0"/>
  <variable name="Q00411" index="135" value="-0"/>
  <variable name="Q00412" index="136" value="-0"/>
  <variable name="Q00413" index="137" value="-0"/>
  <variable name="Q00414" index="138" value="-0"/>
  <variable name="Q00420" index="139" value="-0"/>
  <variable name="Q00421" index="140" value="-0"/>
  <variable name="Q00422" index="141" value="-0"/>
  <variable name="Q00423" index="142" value="-0"/>
  <variable name="Q00424" index="143" value="-0"/>
  <variable name="Q00430" index="144" value="-0"/>
  <variable name="Q00431" index="145" value="-0"/>
  <variable name="Q00432" index="146" value="-0"/>
  <variable name="Q00433" index="147" value="-0"/>
  <variable name="Q00434" index="148" value="-0"/>
  <variable name="Q00440" index="149" value="-0"/>
  <variable name="P00440" index="150" value="-0"/>
  <variable name="Q00441" index="151" value="-0"/>
  <variable name="Q00442" index="152" value="0"/>
  <variable name="Q00443" index="153" value="-0"/>
  <variable name="Q00444" index="154" value="-0"/>
  <variable name="P00444" index="155" value="-0"/>
  <variable name="Q01000" index="156" value="-0"/>
  <variable name="P01000" index="157" value="-0"/>
  <variable name="Q01001" index="158" value="-0"/>
  <variable name="P01001" index="159" value="0"/>
  <variable name="Q01002" index="160" value="-0"/>
  <variable name="Q01003" index="161" value="-0"/>
  <variable name="Q01004" index="162" value="-0"/>
  <variable name="Q01010" index="163" value="-0"/>
  <variable name="P01010" index="164" value="-0"/>
  <variable name="Q01011" index="165" value="-0"/>
  <variable name="P01011" index="166" value="1.0000000000000009"/>
  <variable name="Q01012" index="167" value="-0"/>
  <variable name="Q01013" index="168" value="-0"/>
  <variable name="Q01014" index="169" value="-0"/>
  <variable name="Q01020" index="170" value="-0"/>
  <variable name="Q01021" index="171" value="-0"/>
  <variable name="Q01022" index="172" value="-0"/>
  <variable name="Q01023" index="173" value="-0"/>
  <variable name="Q01024" index="174" value="-0"/>
  <variable name="Q01030" index="175" value="-0"/>
  <variable name="Q01031" index="176" value="-0"/>
  <variable name="Q01032" index="177" value="-0"/>
  <variable name="Q01033" index="178" value="-0"/>
  <variable name="Q01034" index="179" value="-0"/>
  <variable name="Q01040" index="180" value="-0"/>
  <variable name="Q01041" index="181" value="-0"/>
  <variable name="Q01042" index="182" value="-0"/>
  <variable name="Q01043" index="183" value="-0"/>
  <variable name="Q01044" index="184" value="-0"/>
  <variable name="Q01100" index="185" value="-0"/>
  <variable name="P01100" index="186" value="-0"/>
  <variable name="Q01101" index="187" value="-0"/>
  <variable name="P01101" index="188" value="0.99999999999999911"/>
  <variable name="Q01102" index="189" value="-0"/>
  <variable name="Q01103" index="190" value="-0"/>
  <variable name="Q01104" index="191" value="-0"/>
  <variable name="Q01110" index="192" value="-0"/>
  <variable name="P01110" index="193" value="-0"/>
  <variable name="Q01111" index="194" value="-0"/>
  <variable name="P01111" index="195" value="-0"/>
  <variable name="Q01112" index="196" value="-0"/>
  <variable name="Q01113" index="197" value="-0"/>
  <variable name="Q01114" index="198" value="-0"/>
  <variable name="Q01120" index="199" value="-0"/>
  <variable name="Q01121" index="200" value="-0"/>
  <variable name="Q01122" index="201" value="-0"/>
  <variable name="Q01123" index="202" value="-0"/>
  <variable name="Q01124" index="203" value="-0"/>
  <variable name="Q01130" index="204" value="-0"/>
  <variable name="Q01131" index="205" value="-0"/>
  <variable name="Q01132" index="206" value="-0"/>
  <variable name="Q01133" index="207" value="-0"/>
  <variable name="Q01134" index="208" value="-0"/>
  <variable name="Q01140" index="209" value="-0"/>
  <variable name="Q01141" index="210" value="-0"/>
  <variable name="Q01142" index="211" value="-0"/>
  <variable name="Q01143" index="212" value="-0"/>
  <variable name="Q01144" index="213" value="-0"/>
  <variable name="Q01200" index="214" value="-0"/>
  <variable name="Q01201" index="215" value="-0"/>
  <variable name="Q01202" index="216" value="-0"/>
  <variable name="Q01203" index="217" value="-0"/>
  <variable name="Q01204" index="218" value="-0"/>
  <variable name="Q01210" index="219" value="-0"/>
  <variable name="Q01211" index="220" value="-0"/>
  <variable name="Q01212" index="221" value="-0"/>
  <variable name="Q01213" index="222" value="-0"/>
  <variable name="Q01214" index="223" value="-0"/>
  <variable name="Q01220" index="224" value="-0"/>
  <variable name="Q01221" index="225" value="-0"/>
  <variable name="Q01222" index="226" value="-0"/>
  <variable name="Q01223" index="227" value="-0"/>
  <variable name="Q01224" index="228" value="-0"/>
  <variable name="Q01230" index="229" value="-0"/>
  <variable name="Q01231" index="230" value="-0"/>
  <variable name="Q01232" index="231" value="-0"/>
  <variable name="Q01233" index="232" value="-0"/>
  <variable name="Q01240" index="233" value="-0"/>
  <variable name="Q01241" index="234" value="-0"/>
  <variable name="Q01242" index="235" value="-0"/>
  <variable name="Q01243" index="236" value="-0"/>
  <variable name="Q01244" index="237" value="-0"/>
  <variable name="Q01300" index="238" value="-0"/>
  <variable name="Q01301" index="239" value="-0"/>
  <variable name="Q01302" index="240" value="-0"/>
  <variable name="Q01303" index="241" value="-0"/>
  <variable name="Q01304" index="242" value="-0"/>
  <variable name="Q01310" index="243" value="-0"/>
  <variable name="Q01311" index="244" value="-0"/>
  <variable name="Q01312" index="245" value="-0"/>
  <variable name="Q01313" index="246" value="-0"/>
  <variable name="Q01314" index="247" value="-0"/>
  <variable name="Q01320" index="248" value="-0"/>
  <variable name="Q01321" index="249" value="-0"/>
  <variable name="Q01322" index="250" value="-0"/>
  <variable name="Q01323" index="251" value="-0"/>
  <variable name="Q01324" index="252" value="-0"/>
  <variable name="Q01330" index="253" value="-0"/>
  <variable name="Q01331" index="254" value="-0"/>
  <variable name="Q01332" index="255" value="-0"/>
  <variable name="Q01333" index="256" value="-0"/>
  <variable name="Q01334" index="257" value="-0"/>
  <variable name="Q01340" index="258" value="-0"/>
  <variable name="Q01341" index="259" value="-0"/>
  <variable name="Q01342" index="260" value="-0"/>
  <variable name="Q01343" index="261" value="-0"/>
  <variable name="Q01344" index="262" value="-0"/>
  <variable name="Q01400" index="263" value="-0"/>
  <variable name="Q01401" index="264" value="-0"/>
  <variable name="Q01402" index="265" value="-0"/>
  <variable name="Q01403" index="266" value="-0"/>
  <variable name="Q01404" index="267" value="-0"/>
  <variable name="Q01410" index="268" value="-0"/>
  <variable name="Q01411" index="269" value="-0"/>
  <variable name="Q01412" index="270" value="-0"/>
  <variable name="Q01413" index="271" value="-0"/>
  <variable name="Q01414" index="272" value="-0"/>
  <variable name="Q01420" index="273" value="-0"/>
  <variable name="Q01421" index="274" value="-0"/>
  <variable name="Q01422" index="275" value="-0"/>
  <variable name="Q01423" index="276" value="-0"/>
  <variable name="Q01424" index="277" value="-0"/>
  <variable name="Q01430" index="278" value="-0"/>
  <variable name="Q01431" index="279" value="-0"/>
  <variable name="Q01432" index="280" value="-0"/>
  <variable name="Q01433" index="281" value="-0"/>
  <variable name="Q01434" index="282" value="-0"/>
  <variable name="Q01440" index="283" value="-0"/>
  <variable name="Q01441" index="284" value="-0"/>
  <variable name="Q01442" index="285" value="-0"/>
  <variable name="Q01443" index="286" value="-0"/>
  <variable name="Q01444" index="287" value="-0"/>
  <variable name="Q02000" index="288" value="-0"/>
  <variable name="P02000" index="289" value="-0"/>
  <variable name="Q02001" index="290" value="-0"/>
  <variable name="Q02002" index="291" value="-0"/>
  <variable name="P02002" index="292" value="-0"/>
  <variable name="Q02003" index="293" value="0"/>
  <variable name="Q02004" index="294" value="-0"/>
  <variable name="Q02010" index="295" value="-0"/>
  <variable name="Q02011" index="296" value="-0"/>
  <variable name="Q02012" index="297" value="-0"/>
  <variable name="Q02013" index="298" value="-0"/>
  <variable name="Q02014" index="299" value="-0"/>
  <variable name="Q02020" index="300" value="-0"/>
  <variable name="P02020" index="301" value="-0"/>
  <variable name="Q02021" index="302" value="0"/>
  <variable name="Q02022" index="303" value="-0"/>
  <variable name="P02022" index="304" value="-0"/>
  <variable name="Q02023" index="305" value="-0"/>
  <variable name="Q02024" index="306" value="-0"/>
  <variable name="Q02030" index="307" value="-0"/>
  <variable name="Q02031" index="308" value="-0"/>
  <variable name="Q02032" index="309" value="-0"/>
  <variable name="Q02033" index="310" value="-0"/>
  <variable name="Q02034" index="311" value="-0"/>
  <variable name="Q02040" index="312" value="-0"/>
  <variable name="Q02041" index="313" value="-0"/>
  <variable name="Q02042" index="314" value="-0"/>
  <variable name="Q02043" index="315" value="-0"/>
  <variable name="Q02044" index="316" value="-0"/>
  <variable name="Q02100" index="317" value="-0"/>
  <variable name="Q02101" index="318" value="-0"/>
  <variable name="Q02102" index="319" value="-0"/>
  <variable name="Q02103" index="320" value="0"/>
  <variable name="Q02104" index="321" value="-0"/>
  <variable name="Q02110" index="322" value="-0"/>
  <variable name="Q02111" index="323" value="-0"/>
  <variable name="Q02112" index="324" value="-0"/>
  <variable name="Q02113" index="325" value="-0"/>
  <variable name="Q02114" index="326" value="-0"/>
  <variable name="Q02120" index="327" value="-0"/>
  <variable name="Q02121" index="328" value="-0"/>
  <variable name="Q02122" index="329" value="-0"/>
  <variable name="Q02123" index="330" value="-0"/>
  <variable name="Q02124" index="331" value="-0"/>
  <variable name="Q02130" index="332" value="-0"/>
  <variable name="Q02131" index="333" value="-0"/>
  <variable name="Q02132" index="334" value="-0"/>
  <variable name="Q02133" index="335" value="-0"/>
  <variable name="Q02134" index="336" value="-0"/>
  <variable name="Q02140" index="337" value="-0"/>
  <variable name="Q02141" index="338" value="-0"/>
  <variable name="Q02142" index="339" value="-0"/>
  <variable name="Q02143" index="340" value="-0"/>
  <variable name="Q02144" index="341" value="-0"/>
  <variable name="Q02200" index="342" value="-0"/>
  <variable name="P02200" index="343" value="0"/>
  <variable name="Q02201" index="344" value="-0"/>
  <variable name="Q02202" index="345" value="-0"/>
  <variable name="P02202" index="346" value="-0"/>
  <variable name="Q02203" index="347" value="-0"/>
  <variable name="Q02204" index="348" value="-0"/>
  <variable name="Q02210" index="349" value="-0"/>
  <variable name="Q02211" index="350" value="-0"/>
  <variable name="Q02212" index="351" value="-0"/>
  <variable name="Q02213" index="352" value="-0"/>
  <variable name="Q02214" index="353" value="-0"/>
  <variable name="Q02220" index="354" value="-0"/>
  <variable name="P02220" index="355" value="1"/>
  <variable name="Q02221" index="356" value="-0"/>
  <variable name="Q02222" index="357" value="-0"/>
  <variable name="P02222" index="358" value="-0"/>
  <variable name="Q02223" index="359" value="-0"/>
  <variable name="Q02224" index="360" value="-0"/>
  <variable name="Q02230" index="361" value="-0"/>
  <variable name="Q02231" index="362" value="-0"/>
  <variable name="Q02232" index="363" value="-0"/>
  <variable name="Q02233" index="364" value="-0"/>
  <variable name="Q02234" index="365" value="-0"/>
  <variable name="Q02240" index="366" value="-0"/>
  <variable name="Q02241" index="367" value="-0"/>
  <variable name="Q02242" index="368" value="-0"/>
  <variable name="Q02243" index="369" value="-0"/>
  <variable name="Q02244" index="370" value="-0"/>
  <variable name="Q02300" index="371" value="-0"/>
  <variable name="Q02301" index="372" value="-0"/>
  <variable name="Q02302" index="373" value="-0"/>
  <variable name="Q02303" index="374" value="-0"/>
  <variable name="Q02304" index="375" value="-0"/>
  <variable name="Q02310" index="376" value="-0"/>
  <variable name="Q02311" index="377" value="-0"/>
  <variable name="Q02312" index="378" value="-0"/>
  <variable name="Q02313" index="379" value="-0"/>
  <variable name="Q02314" index="380" value="-0"/>
  <variable name="Q02320" index="381" value="-0"/>
  <variable name="Q02321" index="382" value="-0"/>
  <variable name="Q02322" index="383" value="-0"/>
  <variable name="Q02323" index="384" value="-0"/>
  <variable name="Q02324" index="385" value="-0"/>
  <variable name="Q02330" index="386" value="-0"/>
  <variable name="Q02331" index="387" value="-0"/>
  <variable name="Q02332" index="388" value="-0"/>
  <variable name="Q02333" index="389" value="-0"/>
  <variable name="Q02334" index="390" value="-0"/>
  <variable name="Q02340" index="391" value="-0"/>
  <variable name="Q02341" index="392" value="-0"/>
  <variable name="Q02342" index="393" value="-0"/>
  <variable name="Q02343" index="394" value="-0"/>
  <variable name="Q02344" index="395" value="-0"/>
  <variable name="Q02400" index="396" value="-0"/>
  <variable name="Q02401" index="397" value="-0"/>
  <variable name="Q02402" index="398" value="-0"/>
  <variable name="Q02403" index="399" value="-0"/>
  <variable name="Q02404" index="400" value="-0"/>
  <variable name="Q02410" index="401" value="-0"/>
  <variable name="Q02411" index="402" value="-0"/>
  <variable name="Q02412" index="403" value="-0"/>
  <variable name="Q02413" index="404" value="1.0000000000000016"/>
  <variable name="Q02414" index="405" value="-0"/>
  <variable name="Q02420" index="406" value="-0"/>
  <variable name="Q02421" index="407" value="-0"/>
  <variable name="Q02422" index="408" value="-0"/>
  <variable name="Q02423" index="409" value="-0"/>
  <variable name="Q02424" index="410" value="-0"/>
  <variable name="Q02430" index="411" value="-0"/>
  <variable name="Q02431" index="412" value="-0"/>
  <variable name="Q02432" index="413" value="-0"/>
  <variable name="Q02433" index="414" value="-0"/>
  <variable name="Q02434" index="415" value="-0"/>
  <variable name="Q02440" index="416" value="-0"/>
  <variable name="Q02441" index="417" value="-0"/>
  <variable name="Q02442" index="418" value="-0"/>
  <variable name="Q02443" index="419" value="-0"/>
  <variable name="Q02444" index="420" value="-0"/>
  <variable name="Q03000" index="421" value="-0"/>
  <variable name="P03000" index="422" value="-0"/>
  <variable name="Q03001" index="423" value="-0"/>
  <variable name="Q03002" index="424" value="-0"/>
  <variable name="Q03003" index="425" value="-0"/>
  <variable name="P03003" index="426" value="-0"/>
  <variable name="Q03004" index="427" value="-0"/>
  <variable name="Q03010" index="428" value="-0"/>
  <variable name="Q03011" index="429" value="-0"/>
  <variable name="Q03012" index="430" value="-0"/>
  <variable name="Q03013" index="431" value="-0"/>
  <variable name="Q03014" index="432" value="-0"/>
  <variable name="Q03020" index="433" value="0"/>
  <variable name="Q03021" index="434" value="-0"/>
  <variable name="Q03022" index="435" value="-0"/>
  <variable name="Q03023" index="436" value="-0"/>
  <variable name="Q03024" index="437" value="-0"/>
  <variable name="Q03030" index="438" value="-0"/>
  <variable name="P03030" index="439" value="-0"/>
  <variable name="Q03031" index="440" value="-0"/>
  <variable name="Q03032" index="441" value="-0"/>
  <variable name="Q03033" index="442" value="-0"/>
  <variable name="P03033" index="443" value="-0"/>
  <variable name="Q03034" index="444" value="-0"/>
  <variable name="Q03040" index="445" value="-0"/>
  <variable name="Q03041" index="446" value="-0"/>
  <variable name="Q03042" index="447" value="-0"/>
  <variable name="Q03043" index="448" value="0"/>
  <variable name="Q03044" index="449" value="-0"/>
  <variable name="Q03100" index="450" value="-0"/>
  <variable name="Q03101" index="451" value="-0"/>
  <variable name="Q03102" index="452" value="-0"/>
  <variable name="Q03103" index="453" value="-0"/>
  <variable name="Q03104" index="454" value="-0"/>
  <variable name="Q03110" index="455" value="0"/>
  <variable name="Q03111" index="456" value="-0"/>
  <variable name="Q03112" index="457" value="-0"/>
  <variable name="Q03113" index="458" value="-0"/>
  <variable name="Q03114" index="459" value="-0"/>
  <variable name="Q03120" index="460" value="-0"/>
  <variable name="Q03121" index="461" value="-0"/>
  <variable name="Q03122" index="462" value="-0"/>
  <variable name="Q03123" index="463" value="-0"/>
  <variable name="Q03124" index="464" value="-0"/>
  <variable name="Q03130" index="465" value="-0"/>
  <variable name="Q03131" index="466" value="-0"/>
  <variable name="Q03132" index="467" value="-0"/>
  <variable name="Q03133" index="468" value="-0"/>
  <variable name="Q03134" index="469" value="-0"/>
  <variable name="Q03140" index="470" value="-0"/>
  <variable name="Q03141" index="471" value="-0"/>
  <variable name="Q03142" index="472" value="1"/>
  <variable name="Q03143" index="473" value="0"/>
  <variable name="Q03144" index="474" value="-0"/>
  <variable name="Q03200" index="475" value="-0"/>
  <variable name="Q03201" index="476" value="-0"/>
  <variable name="Q03202" index="477" value="-0"/>
  <variable name="Q03203" index="478" value="-0"/>
  <variable name="Q03204" index="479" value="-0"/>
  <variable name="Q03210" index="480" value="-0"/>
  <variable name="Q03211" index="481" value="-0"/>
  <variable name="Q03212" index="482" value="-0"/>
  <variable name="Q03213" index="483" value="-0"/>
  <variable name="Q03214" index="484" value="-0"/>
  <variable name="Q03220" index="485" value="-0"/>
  <variable name="Q03221" index="486" value="-0"/>
  <variable name="Q03222" index="487" value="-0"/>
  <variable name="Q03223" index="488" value="-0"/>
  <variable name="Q03224" index="489" value="-0"/>
  <variable name="Q03230" index="490" value="-0"/>
  <variable name="Q03231" index="491" value="-0"/>
  <variable name="Q03232" index="492" value="-0"/>
  <variable name="Q03233" index="493" value="-0"/>
  <variable name="Q03234" index="494" value="-0"/>
  <variable name="Q03240" index="495" value="-0"/>
  <variable name="Q03241" index="496" value="-0"/>
  <variable name="Q03242" index="497" value="-0"/>
  <variable name="Q03243" index="498" value="-0"/>
  <variable name="Q03244" index="499" value="-0"/>
  <variable name="Q03300" index="500" value="-0"/>
  <variable name="P03300" index="501" value="1.0000000000000013"/>
  <variable name="Q03301" index="502" value="-0"/>
  <variable name="Q03302" index="503" value="-0"/>
  <variable name="Q03303" index="504" value="-0"/>
  <variable name="P03303" index="505" value="-0"/>
  <variable name="Q03304" index="506" value="-0"/>
  <variable name="Q03310" index="507" value="-0"/>
  <variable name="Q03311" index="508" value="-0"/>
  <variable name="Q03312" index="509" value="-0"/>
  <variable name="Q03313" index="510" value="-0"/>
  <variable name="Q03314" index="511" value="-0"/>
  <variable name="Q03320" index="512" value="-0"/>
  <variable name="Q03321" index="513" value="-0"/>
  <variable name="Q03322" index="514" value="0"/>
  <variable name="Q03323" index="515" value="-0"/>
  <variable name="Q03324" index="516" value="-0"/>
  <variable name="Q03330" index="517" value="-0"/>
  <variable name="P03330" index="518" value="0"/>
  <variable name="Q03331" index="519" value="-0"/>
  <variable name="Q03332" index="520" value="-0"/>
  <variable name="Q03333" index="521" value="-0"/>
  <variable name="P03333" index="522" value="-0"/>
  <variable name="Q03334" index="523" value="-0"/>
  <variable name="Q03340" index="524" value="-0"/>
  <variable name="Q03341" index="525" value="-0"/>
  <variable name="Q03342" index="526" value="-0"/>
  <variable name="Q03343" index="527" value="-0"/>
  <variable name="Q03344" index="528" value="-0"/>
  <variable name="Q03400" index="529" value="-0"/>
  <variable name="Q03401" index="530" value="-0"/>
  <variable name="Q03402" index="531" value="-0"/>
  <variable name="Q03403" index="532" value="-0"/>
  <variable name="Q03404" index="533" value="-0"/>
  <variable name="Q03410" index="534" value="-0"/>
  <variable name="Q03411" index="535" value="-0"/>
  <variable name="Q03412" index="536" value="-0"/>
  <variable name="Q03413" index="537" value="-0"/>
  <variable name="Q03414" index="538" value="-0"/>
  <variable name="Q03420" index="539" value="-0"/>
  <variable name="Q03421" index="540" value="-0"/>
  <variable name="Q03422" index="541" value="-0"/>
  <variable name="Q03423" index="542" value="-0"/>
  <variable name="Q03424" index="543" value="-0"/>
  <variable name="Q03430" index="544" value="-0"/>
  <variable name="Q03431" index="545" value="-0"/>
  <variable name="Q03432" index="546" value="-0"/>
  <variable name="Q03433" index="547" value="-0"/>
  <variable name="Q03434" index="548" value="-0"/>
  <variable name="Q03440" index="549" value="-0"/>
  <variable name="Q03441" index="550" value="-0"/>
  <variable name="Q03442" index="551" value="-0"/>
  <variable name="Q03443" index="552" value="-0"/>
  <variable name="Q03444" index="553" value="-0"/>
  <variable name="Q04000" index="554" value="-0"/>
  <variable name="P04000" index="555" value="-0"/>
  <variable name="Q04001" index="556" value="-0"/>
  <variable name="Q04002" index="557" value="-0"/>
  <variable name="Q04003" index="558" value="-0"/>
  <variable name="Q04004" index="559" value="-0"/>
  <variable name="P04004" index="560" value="1"/>
  <variable name="Q04010" index="561" value="-0"/>
  <variable name="Q04011" index="562" value="-0"/>
  <variable name="Q04012" index="563" value="-0"/>
  <variable name="Q04013" index="564" value="-0"/>
  <variable name="Q04014" index="565" value="-0"/>
  <variable name="Q04020" index="566" value="-0"/>
  <variable name="Q04021" index="567" value="-0"/>
  <variable name="Q04022" index="568" value="-0"/>
  <variable name="Q04023" index="569" value="-0"/>
  <variable name="Q04024" index="570" value="-0"/>
  <variable name="Q04030" index="571" value="-0"/>
  <variable name="Q04031" index="572" value="-0"/>
  <variable name="Q04032" index="573" value="-0"/>
  <variable name="Q04033" index="574" value="-0"/>
  <variable name="Q04034" index="575" value="-0"/>
  <variable name="Q04040" index="576" value="-0"/>
  <variable name="P04040" index="577" value="0.99999999999999689"/>
  <variable name="Q04041" index="578" value="-0"/>
  <variable name="Q04042" index="579" value="-0"/>
  <variable name="Q04043" index="580" value="-0"/>
  <variable name="Q04044" index="581" value="-0"/>
  <variable name="P04044" index="582" value="-0"/>
  <variable name="Q04100" index="583" value="0"/>
  <variable name="Q04101" index="584" value="-0"/>
  <variable name="Q04102" index="585" value="-0"/>
  <variable name="Q04103" index="586" value="-0"/>
  <variable name="Q04104" index="587" value="-0"/>
  <variable name="Q04110" index="588" value="-0"/>
  <variable name="Q04111" index="589" value="-0"/>
  <variable name="Q04112" index="590" value="-0"/>
  <variable name="Q04113" index="591" value="-0"/>
  <variable name="Q04114" index="592" value="-0"/>
  <variable name="Q04120" index="593" value="-0"/>
  <variable name="Q04121" index="594" value="-0"/>
  <variable name="Q04122" index="595" value="-0"/>
  <variable name="Q04123" index="596" value="-0"/>
  <variable name="Q04124" index="597" value="-0"/>
  <variable name="Q04130" index="598" value="-0"/>
  <variable name="Q04131" index="599" value="-0"/>
  <variable name="Q04132" index="600" value="-0"/>
  <variable name="Q04133" index="601" value="-0"/>
  <variable name="Q04134" index="602" value="-0"/>
  <variable name="Q04140" index="603" value="-0"/>
  <variable name="Q04141" index="604" value="-0"/>
  <variable name="Q04142" index="605" value="-0"/>
  <variable name="Q04143" index="606" value="0"/>
  <variable name="Q04144" index="607" value="-0"/>
  <variable name="Q04200" index="608" value="-0"/>
  <variable name="Q04201" index="609" value="-0"/>
  <variable name="Q04202" index="610" value="-0"/>
  <variable name="Q04203" index="611" value="-0"/>
  <variable name="Q04204" index="612" value="-0"/>
  <variable name="Q04210" index="613" value="0"/>
  <variable name="Q04211" index="614" value="-0"/>
  <variable name="Q04212" index="615" value="-0"/>
  <variable name="Q04213" index="616" value="-0"/>
  <variable name="Q04214" index="617" value="-0"/>
  <variable name="Q04220" index="618" value="-0"/>
  <variable name="Q04221" index="619" value="-0"/>
  <variable name="Q04222" index="620" value="-0"/>
  <variable name="Q04223" index="621" value="-0"/>
  <variable name="Q04224" index="622" value="-0"/>
  <variable name="Q04230" index="623" value="-0"/>
  <variable name="Q04231" index="624" value="-0"/>
  <variable name="Q04232" index="625" value="-0"/>
  <variable name="Q04233" index="626" value="-0"/>
  <variable name="Q04234" index="627" value="-0"/>
  <variable name="Q04240" index="628" value="-0"/>
  <variable name="Q04241" index="629" value="-0"/>
  <variable name="Q04242" index="630" value="-0"/>
  <variable name="Q04243" index="631" value="-0"/>
  <variable name="Q04244" index="632" value="-0"/>
  <variable name="Q04300" index="633" value="-0"/>
  <variable name="Q04301" index="634" value="-0"/>
  <variable name="Q04302" index="635" value="-0"/>
  <variable name="Q04303" index="636" value="-0"/>
  <variable name="Q04304" index="637" value="-0"/>
  <variable name="Q04310" index="638" value="0"/>
  <variable name="Q04311" index="639" value="-0"/>
  <variable name="Q04312" index="640" value="-0"/>
  <variable name="Q04313" index="641" value="0"/>
  <variable name="Q04314" index="642" value="-0"/>
  <variable name="Q04320" index="643" value="-0"/>
  <variable name="Q04321" index="644" value="2.0000000000000031"/>
  <variable name="Q04322" index="645" value="-0"/>
  <variable name="Q04323" index="646" value="-0"/>
  <variable name="Q04324" index="647" value="-0"/>
  <variable name="Q04330" index="648" value="-0"/>
  <variable name="Q04331" index="649" value="-0"/>
  <variable name="Q04332" index="650" value="-0"/>
  <variable name="Q04333" index="651" value="-0"/>
  <variable name="Q04334" index="652" value="-0"/>
  <variable name="Q04340" index="653" value="-0"/>
  <variable name="Q04341" index="654" value="-0"/>
  <variable name="Q04342" index="655" value="-0"/>
  <variable name="Q04343" index="656" value="-0"/>
  <variable name="Q04344" index="657" value="-0"/>
  <variable name="Q04400" index="658" value="-0"/>
  <variable name="P04400" index="659" value="-0"/>
  <variable name="Q04401" index="660" value="-0"/>
  <variable name="Q04402" index="661" value="-0"/>
  <variable name="Q04403" index="662" value="-0"/>
  <variable name="Q04404" index="663" value="-0"/>
  <variable name="P04404" index="664" value="-0"/>
  <variable name="Q04410" index="665" value="-0"/>
  <variable name="Q04411" index="666" value="-0"/>
  <variable name="Q04412" index="667" value="-0"/>
  <variable name="Q04413" index="668" value="-0"/>
  <variable name="Q04414" index="669" value="-0"/>
  <variable name="Q04420" index="670" value="0"/>
  <variable name="Q04421" index="671" value="-0"/>
  <variable name="Q04422" index="672" value="-0"/>
  <variable name="Q04423" index="673" value="-0"/>
  <variable name="Q04424" index="674" value="-0"/>
  <variable name="Q04430" index="675" value="-0"/>
  <variable name="Q04431" index="676" value="-0"/>
  <variable name="Q04432" index="677" value="-0"/>
  <variable name="Q04433" index="678" value="-0"/>
  <variable name="Q04434" index="679" value="-0"/>
  <variable name="Q04440" index="680" value="-0"/>
  <variable name="P04440" index="681" value="-0"/>
  <variable name="Q04441" index="682" value="-0"/>
  <variable name="Q04442" index="683" value="-0"/>
  <variable name="Q04443" index="684" value="0"/>
  <variable name="Q04444" index="685" value="-0"/>
  <variable name="P04444" index="686" value="-0"/>
 </variables>
 <objectiveValues>
  <objective index="0" name="" value="10"/>
 </objectiveValues>
</CPLEXSolution>
